x_1
x_2
x_3
x_4
x_5
x_6
x_7
x_8
x_9
x_10
x_11
x_12
x_13
x_14
x_15
x_16
x_17
x_18
x_19
x_20
x_3 x_1
x_3 x_2
x_4 x_3
x_5 x_1
x_5 x_2
x_6 x_2
x_6 x_3
x_7 x_2
x_7 x_3
x_7 x_5
x_8 x_5
x_8 x_7
x_9 x_2
x_9 x_4
x_9 x_5
x_9 x_6
x_9 x_7
x_10 x_1
x_10 x_2
x_10 x_3
x_10 x_4
x_10 x_5
x_10 x_6
x_10 x_8
x_10 x_9
x_11 x_2
x_11 x_5
x_11 x_8
x_12 x_1
x_12 x_6
x_12 x_7
x_12 x_9
x_13 x_1
x_13 x_2
x_13 x_3
x_13 x_9
x_13 x_11
x_14 x_1
x_14 x_3
x_14 x_4
x_14 x_5
x_14 x_6
x_14 x_8
x_14 x_9
x_14 x_11
x_15 x_1
x_15 x_3
x_15 x_4
x_15 x_8
x_15 x_10
x_15 x_11
x_15 x_13
x_15 x_14
x_16 x_1
x_16 x_4
x_16 x_5
x_16 x_8
x_16 x_9
x_16 x_14
x_16 x_15
x_17 x_1
x_17 x_2
x_17 x_6
x_17 x_7
x_17 x_8
x_17 x_12
x_17 x_13
x_17 x_14
x_17 x_16
x_18 x_6
x_18 x_8
x_18 x_9
x_18 x_10
x_18 x_11
x_18 x_12
x_18 x_13
x_18 x_14
x_19 x_2
x_19 x_3
x_19 x_6
x_19 x_7
x_19 x_9
x_19 x_14
x_19 x_17
x_20 x_2
x_20 x_4
x_20 x_5
x_20 x_6
x_20 x_7
x_20 x_10
x_20 x_11
x_20 x_12
x_20 x_16
x_20 x_17
x_20 x_18
